p cnf 86 387
-43 -40 -37 0
-43 -40 -3 0
-43 -6 -3 0
-42 -39 -36 0
-42 -39 -2 0
-42 -5 -2 0
-41 -38 -35 0
-41 -38 -1 0
-41 -4 -1 0
-40 -37 -34 0
-39 -36 -33 0
-38 -35 -32 0
-37 -34 -31 0
-36 -33 -30 0
-35 -32 -29 0
-34 -31 -28 0
-33 -30 -27 0
-32 -29 -26 0
-31 -28 -25 0
-30 -27 -24 0
-29 -26 -23 0
-28 -25 -22 0
-27 -24 -21 0
-26 -23 -20 0
-25 -22 -19 0
-24 -21 -18 0
-23 -20 -17 0
-22 -19 -16 0
-21 -18 -15 0
-20 -17 -14 0
-19 -16 -13 0
-18 -15 -12 0
-17 -14 -11 0
-16 -13 -10 0
-15 -12 -9 0
-14 -11 -8 0
-13 -10 -7 0
-12 -9 -6 0
-11 -8 -5 0
-10 -7 -4 0
-9 -6 -3 0
-8 -5 -2 0
-7 -4 -1 0
1 14 0
1 20 0
1 25 0
1 31 0
1 44 0
1 50 0
1 50 66 0
1 66 0
1 72 0
2 15 0
2 21 0
2 26 0
2 32 0
2 45 0
2 51 0
2 51 67 0
2 67 0
2 73 0
3 16 0
3 22 0
3 27 0
3 33 0
3 46 0
3 52 0
3 52 68 0
3 68 0
3 74 0
4 17 0
4 23 0
4 28 0
4 34 0
4 47 0
4 53 0
4 53 69 0
4 69 0
4 75 0
5 18 0
5 24 0
5 29 0
5 35 0
5 48 0
5 54 0
5 54 70 0
5 70 0
5 76 0
6 19 0
6 25 0
6 30 0
6 36 0
6 49 0
6 55 0
6 55 71 0
6 71 0
6 77 0
7 20 0
7 26 0
7 31 0
7 37 0
7 50 0
7 56 0
7 56 72 0
7 72 0
7 78 0
8 21 0
8 27 0
8 32 0
8 38 0
8 51 0
8 57 0
8 57 73 0
8 73 0
8 79 0
9 22 0
9 28 0
9 33 0
9 39 0
9 52 0
9 58 0
9 58 74 0
9 74 0
9 80 0
10 23 0
10 29 0
10 34 0
10 40 0
10 53 0
10 59 0
10 59 75 0
10 75 0
10 81 0
11 24 0
11 30 0
11 35 0
11 41 0
11 54 0
11 60 0
11 60 76 0
11 76 0
11 82 0
12 25 0
12 31 0
12 36 0
12 42 0
12 55 0
12 61 0
12 61 77 0
12 77 0
12 83 0
13 26 0
13 32 0
13 37 0
13 43 0
13 56 0
13 62 0
13 62 78 0
13 78 0
13 84 0
14 27 0
14 33 0
14 38 0
14 57 0
14 63 0
14 63 79 0
14 79 0
14 85 0
15 28 0
15 34 0
15 39 0
15 58 0
15 64 0
15 64 80 0
15 80 0
15 86 0
16 29 0
16 35 0
16 40 0
16 44 0
16 59 0
16 65 0
16 65 81 0
16 81 0
17 30 0
17 36 0
17 41 0
17 45 0
17 60 0
17 66 0
17 66 82 0
17 82 0
18 31 0
18 37 0
18 42 0
18 46 0
18 61 0
18 67 0
18 67 83 0
18 83 0
19 32 0
19 38 0
19 43 0
19 47 0
19 62 0
19 68 0
19 68 84 0
19 84 0
20 33 0
20 39 0
20 48 0
20 63 0
20 69 0
20 69 85 0
20 85 0
21 34 0
21 40 0
21 49 0
21 64 0
21 70 0
21 70 86 0
21 86 0
22 35 0
22 41 0
22 44 0
22 44 71 0
22 50 0
22 65 0
22 71 0
23 36 0
23 42 0
23 45 0
23 45 72 0
23 51 0
23 66 0
23 72 0
24 37 0
24 43 0
24 46 0
24 46 73 0
24 52 0
24 67 0
24 73 0
25 38 0
25 47 0
25 47 74 0
25 53 0
25 68 0
25 74 0
26 39 0
26 48 0
26 48 75 0
26 54 0
26 69 0
26 75 0
27 40 0
27 49 0
27 49 76 0
27 55 0
27 70 0
27 76 0
28 41 0
28 50 0
28 50 77 0
28 56 0
28 71 0
28 77 0
29 42 0
29 51 0
29 51 78 0
29 57 0
29 72 0
29 78 0
30 43 0
30 52 0
30 52 79 0
30 58 0
30 73 0
30 79 0
31 53 0
31 53 80 0
31 59 0
31 74 0
31 80 0
32 54 0
32 54 81 0
32 60 0
32 75 0
32 81 0
33 55 0
33 55 82 0
33 61 0
33 76 0
33 82 0
34 56 0
34 56 83 0
34 62 0
34 77 0
34 83 0
35 57 0
35 57 84 0
35 63 0
35 78 0
35 84 0
36 58 0
36 58 85 0
36 64 0
36 79 0
36 85 0
37 59 0
37 59 86 0
37 65 0
37 80 0
37 86 0
38 44 0
38 44 60 0
38 60 0
38 66 0
38 81 0
39 45 0
39 45 61 0
39 61 0
39 67 0
39 82 0
40 46 0
40 46 62 0
40 62 0
40 68 0
40 83 0
41 47 0
41 47 63 0
41 63 0
41 69 0
41 84 0
42 48 0
42 48 64 0
42 64 0
42 70 0
42 85 0
43 49 0
43 49 65 0
43 65 0
43 71 0
43 86 0
44 0
45 0
46 0
47 0
48 0
49 0
50 0
51 0
52 0
53 0
54 0
55 0
56 0
57 0
58 0
59 0
60 0
61 0
62 0
63 0
64 0
65 0
66 0
67 0
68 0
69 0
70 0
71 0
72 0
73 0
74 0
75 0
76 0
77 0
78 0
79 0
80 0
81 0
82 0
83 0
84 0
85 0
86 0
